51353
74,254,426,591,599,712,830,1048,1086,1099,1119,1143,1256,1334,1361,1457,1567,1608,1651,1662,1667,1777,1887,2296,2732,2792,2798,2822,2848,2858,2896,2940,3008,3032,3278,3280,3292,3364,3387,3409,3411,3462,3604,3716,3947,4000,4017,4040,4111,4130,4131,4201,4226,4386,4467,4595,4648,4691,4749,4768,5079,5101,5114,5187,5203,5210,5239,5267,5274,5313,5315,5407,5496,5499,5588,5625,5755,5819,5820,6016,6027,6096,6135,6147,6376,6388,6446,6586,6590,6596,6657,6666,6760,6839,7068,7072,7097,7196,7320,7333,7340,7373,7381,7414,7593,7656,7738,7875,7992,8169,8238,8239,8348,8354,8440,8443,8519,8557,8655,8721,8770,8964,9094,9129,9176,9259,9346,9441,9585,9613,9630,9953
